
  22    0


   0  12 2 3 4 5 6 7 8 9 10 19 20 21 
   8   4 18 15 12 11 
   6   4 17 14 13 11 
   6   2 15 13 
   9   2 16 14 
   7   2 14 12 
   5   2 13 11 
   9   1 12 
   8   1 11 
   6   1 11 
   2   1 22
   9   1 22
   3   1 22
   5   1 22
   6   1 22
   2   1 22
   8   1 22
   3   1 22
   3   1 22
   7   1 22
   1   1 22
   0   0 
